12° run output:
{
    "Function": "kroB400.tsp",
    "Problem dimension": [
        208,
        63,
        212,
        292,
        13,
        374,
        20,
        169,
        255,
        176,
        68,
        252,
        18,
        329,
        4,
        192,
        103,
        140,
        55,
        143,
        264,
        159,
        321,
        395,
        234,
        235,
        267,
        317,
        380,
        225,
        183,
        104,
        112,
        318,
        122,
        158,
        156,
        198,
        201,
        136,
        102,
        170,
        23,
        336,
        46,
        312,
        219,
        385,
        365,
        0,
        74,
        22,
        126,
        268,
        388,
        108,
        41,
        228,
        42,
        223,
        53,
        11,
        197,
        283,
        154,
        40,
        116,
        355,
        200,
        331,
        333,
        109,
        164,
        54,
        248,
        50,
        265,
        215,
        396,
        239,
        191,
        62,
        279,
        204,
        174,
        242,
        21,
        175,
        1,
        3,
        6,
        195,
        273,
        193,
        69,
        173,
        399,
        316,
        281,
        47,
        166,
        28,
        27,
        128,
        89,
        249,
        282,
        76,
        190,
        123,
        287,
        160,
        323,
        16,
        125,
        87,
        259,
        339,
        371,
        326,
        83,
        56,
        221,
        99,
        220,
        393,
        217,
        24,
        171,
        45,
        368,
        315,
        187,
        151,
        149,
        308,
        144,
        295,
        165,
        261,
        213,
        177,
        142,
        372,
        203,
        34,
        157,
        61,
        303,
        364,
        284,
        347,
        94,
        96,
        137,
        346,
        105,
        389,
        246,
        139,
        350,
        353,
        141,
        167,
        382,
        161,
        115,
        80,
        243,
        67,
        335,
        363,
        373,
        320,
        344,
        352,
        26,
        91,
        370,
        90,
        354,
        278,
        9,
        66,
        131,
        277,
        313,
        324,
        100,
        394,
        319,
        85,
        7,
        293,
        258,
        251,
        210,
        127,
        49,
        366,
        186,
        209,
        95,
        309,
        107,
        32,
        119,
        274,
        299,
        224,
        257,
        73,
        359,
        65,
        260,
        172,
        30,
        266,
        334,
        72,
        106,
        121,
        19,
        155,
        182,
        110,
        92,
        357,
        148,
        245,
        33,
        97,
        86,
        348,
        233,
        390,
        168,
        188,
        275,
        39,
        362,
        135,
        150,
        237,
        384,
        286,
        133,
        185,
        263,
        250,
        358,
        178,
        297,
        48,
        218,
        391,
        298,
        378,
        271,
        52,
        37,
        247,
        147,
        285,
        114,
        379,
        387,
        307,
        227,
        306,
        241,
        325,
        196,
        84,
        58,
        2,
        349,
        199,
        43,
        205,
        236,
        232,
        332,
        226,
        36,
        211,
        59,
        71,
        180,
        206,
        214,
        124,
        256,
        340,
        101,
        134,
        280,
        93,
        360,
        82,
        231,
        78,
        289,
        163,
        207,
        351,
        338,
        238,
        113,
        179,
        276,
        130,
        57,
        253,
        81,
        152,
        181,
        367,
        301,
        88,
        300,
        244,
        64,
        386,
        311,
        397,
        15,
        375,
        202,
        189,
        337,
        398,
        272,
        377,
        294,
        270,
        17,
        162,
        12,
        120,
        291,
        117,
        51,
        184,
        296,
        328,
        79,
        369,
        138,
        132,
        302,
        8,
        146,
        44,
        77,
        304,
        288,
        111,
        230,
        118,
        254,
        216,
        14,
        305,
        343,
        129,
        361,
        5,
        29,
        153,
        35,
        392,
        222,
        330,
        290,
        262,
        383,
        145,
        70,
        25,
        345,
        229,
        341,
        314,
        194,
        240,
        356,
        98,
        75,
        31,
        327,
        60,
        269,
        342,
        38,
        10,
        376,
        322,
        381,
        310
    ],
    "Global Optimum": 0,
    "Algorithm": "Genetic algorithm",
    "Parameters": {
        "population": 30,
        "offspring": 30,
        "mutation probability": 0.0025,
        "crossover probability": 0.9
    },
    "Fitness": 506859,
    "Solution": [
        208,
        63,
        212,
        292,
        13,
        374,
        20,
        169,
        255,
        176,
        68,
        252,
        18,
        329,
        4,
        192,
        103,
        140,
        55,
        143,
        264,
        159,
        321,
        395,
        234,
        235,
        267,
        317,
        380,
        225,
        183,
        104,
        112,
        318,
        122,
        158,
        156,
        198,
        201,
        136,
        102,
        170,
        23,
        336,
        46,
        312,
        219,
        385,
        365,
        0,
        74,
        22,
        126,
        268,
        388,
        108,
        41,
        228,
        42,
        223,
        53,
        11,
        197,
        283,
        154,
        40,
        116,
        355,
        200,
        331,
        333,
        109,
        164,
        54,
        248,
        50,
        265,
        215,
        396,
        239,
        191,
        62,
        279,
        204,
        174,
        242,
        21,
        175,
        1,
        3,
        6,
        195,
        273,
        193,
        69,
        173,
        399,
        316,
        281,
        47,
        166,
        28,
        27,
        128,
        89,
        249,
        282,
        76,
        190,
        123,
        287,
        160,
        323,
        16,
        125,
        87,
        259,
        339,
        371,
        326,
        83,
        56,
        221,
        99,
        220,
        393,
        217,
        24,
        171,
        45,
        368,
        315,
        187,
        151,
        149,
        308,
        144,
        295,
        165,
        261,
        213,
        177,
        142,
        372,
        203,
        34,
        157,
        61,
        303,
        364,
        284,
        347,
        94,
        96,
        137,
        346,
        105,
        389,
        246,
        139,
        350,
        353,
        141,
        167,
        382,
        161,
        115,
        80,
        243,
        67,
        335,
        363,
        373,
        320,
        344,
        352,
        26,
        91,
        370,
        90,
        354,
        278,
        9,
        66,
        131,
        277,
        313,
        324,
        100,
        394,
        319,
        85,
        7,
        293,
        258,
        251,
        210,
        127,
        49,
        366,
        186,
        209,
        95,
        309,
        107,
        32,
        119,
        274,
        299,
        224,
        257,
        73,
        359,
        65,
        260,
        172,
        30,
        266,
        334,
        72,
        106,
        121,
        19,
        155,
        182,
        110,
        92,
        357,
        148,
        245,
        33,
        97,
        86,
        348,
        233,
        390,
        168,
        188,
        275,
        39,
        362,
        135,
        150,
        237,
        384,
        286,
        133,
        185,
        263,
        250,
        358,
        178,
        297,
        48,
        218,
        391,
        298,
        378,
        271,
        52,
        37,
        247,
        147,
        285,
        114,
        379,
        387,
        307,
        227,
        306,
        241,
        325,
        196,
        84,
        58,
        2,
        349,
        199,
        43,
        205,
        236,
        232,
        332,
        226,
        36,
        211,
        59,
        71,
        180,
        206,
        214,
        124,
        256,
        340,
        101,
        134,
        280,
        93,
        360,
        82,
        231,
        78,
        289,
        163,
        207,
        351,
        338,
        238,
        113,
        179,
        276,
        130,
        57,
        253,
        81,
        152,
        181,
        367,
        301,
        88,
        300,
        244,
        64,
        386,
        311,
        397,
        15,
        375,
        202,
        189,
        337,
        398,
        272,
        377,
        294,
        270,
        17,
        162,
        12,
        120,
        291,
        117,
        51,
        184,
        296,
        328,
        79,
        369,
        138,
        132,
        302,
        8,
        146,
        44,
        77,
        304,
        288,
        111,
        230,
        118,
        254,
        216,
        14,
        305,
        343,
        129,
        361,
        5,
        29,
        153,
        35,
        392,
        222,
        330,
        290,
        262,
        383,
        145,
        70,
        25,
        345,
        229,
        341,
        314,
        194,
        240,
        356,
        98,
        75,
        31,
        327,
        60,
        269,
        342,
        38,
        10,
        376,
        322,
        381,
        310
    ],
    "Nb of functions evaluations": 50010,
    "Computational time in seconds": 248.76440382003784,
    "Stopping criterion in evaluations": 50000
}